(set-option :produce-models true)
(set-logic QF_UF)
(declare-fun p21() Bool)
(declare-fun p24() Bool)
(declare-fun p28() Bool)
(declare-fun p10() Bool)
(declare-fun p8() Bool)
(declare-fun p22() Bool)
(declare-fun p19() Bool)
(declare-fun p15() Bool)
(declare-fun p20() Bool)
(declare-fun p1() Bool)
(declare-fun p4() Bool)
(declare-fun p5() Bool)
(declare-fun p16() Bool)
(declare-fun p13() Bool)
(declare-fun p12() Bool)
(declare-fun p14() Bool)
(declare-fun p29() Bool)
(declare-fun p6() Bool)
(declare-fun p26() Bool)
(declare-fun p25() Bool)
(declare-fun p27() Bool)
(declare-fun p2() Bool)
(declare-fun p23() Bool)
(declare-fun p9() Bool)
(declare-fun p7() Bool)
(declare-fun p0() Bool)
(declare-fun p17() Bool)
(declare-fun p11() Bool)
(declare-fun p18() Bool)
(declare-fun p3() Bool)
(assert
(and (or p21 (not p24) (not p28) (not p10) (not p8)) (or p22 p19 (not p10) (not p24) (not p15)) (or p20 (not p1) (not p4) p28 p5) (or (not p16) p13 p12 p14 p14) (or p12 p29 (not p22) (not p24) (not p28)) (or p4 p16 p13 (not p28) (not p6)) (or p29 (not p26) p4 p5 (not p25)) (or (not p27) (not p2) (not p23) p10 (not p13)) (or (not p16) (not p9) (not p10) p24 (not p19)) (or p16 p15 p10 (not p27) p27) (or (not p9) (not p7) p0 (not p17) (not p17)) (or p22 p13 p0 (not p0) (not p10)) (or p13 p23 (not p28) p1 p20) (or p23 p14 (not p10) p29 p17) (or p25 (not p27) (not p13) (not p13) p25) (or (not p20) p11 (not p8) p11 p11) (or p9 (not p17) p15 (not p2) (not p5)) (or p6 p22 p11 p25 p2) (or (not p12) (not p2) p7 p22 (not p10)) (or p10 (not p17) p1 p21 (not p18)) (or p22 (not p15) (not p27) p28 (not p13)) (or p17 (not p29) (not p0) p19 p12) (or (not p11) p3 (not p28) (not p19) p17) (or (not p7) p27 p4 (not p4) p4) (or p24 (not p22) (not p24) (not p5) p15) (or p9 (not p16) (not p12) (not p24) (not p14)) (or p26 p14 (not p14) p16 p0) (or (not p24) p21 (not p16) p3 (not p16)) (or (not p17) (not p8) p1 p5 p4) (or (not p9) p10 (not p15) p7 (not p29)) (or p23 (not p18) (not p5) p27 p19) (or p20 (not p22) (not p5) p11 (not p21)) (or p8 (not p8) (not p27) p25 p13) (or p25 (not p0) (not p18) (not p15) (not p6)) (or p20 (not p0) p9 (not p16) p19) (or (not p1) (not p14) p9 (not p22) p29) (or p28 (not p9) (not p29) (not p9) p1) (or (not p23) p7 (not p17) (not p18) p0) (or (not p22) (not p3) p24 (not p10) p16) (or p23 p28 p20 p14 p11) (or p6 p6 (not p27) p3 p13) (or (not p24) p28 p6 (not p14) (not p24)) (or (not p13) p11 p3 (not p11) p4) (or p16 p20 p12 p12 p8) (or (not p15) p29 (not p7) (not p20) (not p23)) (or p2 (not p11) p27 (not p1) p13) (or p19 p16 p27 p12 p11) (or (not p10) (not p1) p12 p3 p7) (or (not p27) p24 p0 (not p13) (not p19)) (or p16 p29 p9 (not p12) p21) (or (not p15) p24 p19 p16 p17) (or p16 p1 (not p26) (not p13) (not p13)) (or (not p27) p18 (not p21) (not p14) p0) (or p23 p1 p18 (not p24) (not p10)) (or p28 (not p16) (not p5) (not p12) (not p1)) (or p28 p14 (not p19) p7 p16) (or p10 (not p29) p1 p9 (not p26)) (or (not p23) (not p13) p20 (not p12) (not p21)) (or (not p17) (not p0) (not p9) p14 p19) (or (not p6) p16 (not p15) p28 p7) (or p6 (not p17) (not p2) p25 (not p6)) (or (not p20) (not p20) (not p28) (not p12) p25) (or p0 (not p7) (not p14) (not p27) (not p22)) (or p18 p14 (not p22) (not p7) p7) (or p6 p3 (not p4) p23 (not p28)) (or p17 p18 p16 (not p29) (not p4)) (or p24 p22 (not p9) (not p21) (not p9)) (or p23 (not p0) p8 (not p8) p8) (or p8 (not p17) p4 (not p2) (not p8)) (or (not p15) (not p25) p25 p16 (not p14)) (or p6 p1 p29 p21 p5) (or (not p8) p8 (not p12) p27 p17) (or p0 p2 (not p18) (not p17) (not p29)) (or (not p16) (not p14) (not p11) (not p19) (not p26)) (or (not p17) p28 (not p21) p0 (not p12)) (or (not p19) p3 p28 (not p22) (not p23)) (or p7 (not p14) p1 (not p5) (not p20)) (or (not p18) (not p19) (not p13) p7 p17) (or (not p13) p18 (not p21) (not p14) p26) (or (not p14) p2 (not p3) p3 p10) (or p22 (not p18) (not p2) (not p3) p14) (or (not p19) p1 p20 p9 p24) (or p25 (not p26) (not p25) (not p21) (not p27)) (or p18 (not p10) (not p22) p27 (not p8)) (or (not p6) p8 (not p1) p0 (not p10)) (or (not p23) (not p10) p17 p25 (not p20)) (or p3 (not p1) p9 (not p21) (not p8)) (or p13 p3 p22 (not p21) (not p19)) (or p19 p26 p26 (not p4) (not p4)) (or p29 (not p22) (not p12) p9 (not p20)) (or (not p29) p5 (not p9) (not p15) p10) (or p22 p0 p17 p18 (not p3)) (or (not p26) p1 p20 (not p28) (not p12)) (or (not p24) p18 p8 (not p20) (not p27)) (or (not p21) p19 p6 (not p16) (not p15)) (or (not p23) (not p19) (not p18) (not p14) (not p7)) (or p10 (not p23) p23 (not p5) (not p25)) (or p18 p5 p28 p13 p28) (or (not p24) (not p12) (not p9) p5 p21) (or p1 (not p7) p16 p18 (not p22)) (or (not p19) (not p14) p26 p8 p18) (or p20 (not p28) p18 (not p11) (not p6)) (or p14 p18 p28 (not p11) p12) (or (not p29) (not p18) p16 (not p10) p22) (or (not p10) p14 p23 p1 p25) (or p26 (not p13) p3 p14 p8) (or (not p13) p6 (not p24) p4 p21) (or (not p13) p20 p3 (not p27) (not p15)) (or p29 (not p26) (not p9) (not p0) (not p15)) (or p22 (not p8) p20 (not p0) (not p8)) (or p9 p7 p19 (not p12) (not p1)) (or p4 p20 p28 (not p14) p27) (or (not p27) p17 (not p13) p18 (not p17)) (or p18 (not p4) p12 p17 (not p19)) (or (not p8) (not p8) (not p3) (not p15) p16) (or p11 p20 (not p18) (not p3) (not p17)) (or p24 (not p12) p29 p20 (not p6)) (or p15 p11 p29 (not p23) (not p9)) (or (not p11) p28 (not p25) p22 p19) (or (not p12) (not p17) (not p29) (not p1) (not p14)) (or (not p26) p10 (not p19) p22 (not p24)) (or p28 (not p4) p16 p28 p9) (or p7 p14 p0 (not p29) p17) (or (not p5) (not p0) p24 p2 (not p10)) (or (not p17) (not p14) p20 p29 p8) (or p19 p26 (not p22) p25 (not p27)) (or (not p7) (not p14) (not p11) (not p23) p5) (or (not p17) p27 p9 (not p27) (not p13)) (or (not p1) p10 p18 p19 p29) (or (not p11) p29 (not p4) p12 (not p12)) (or (not p16) (not p4) (not p10) (not p16) p23) (or p16 (not p28) (not p25) (not p13) p4) (or (not p12) p27 p5 (not p15) (not p7)) (or (not p5) (not p12) (not p23) p21 p12) (or (not p28) (not p16) (not p5) p23 p7) (or p27 p27 p4 (not p16) (not p8)) (or (not p23) (not p13) p1 p5 p15) (or p25 (not p6) p7 p26 p6) (or (not p28) p28 p16 (not p2) (not p2)) (or (not p9) (not p6) (not p4) (not p9) p28) (or p29 p22 (not p20) (not p19) (not p0)) (or (not p23) (not p2) (not p11) (not p23) (not p29)) (or (not p24) (not p15) (not p16) (not p25) (not p3)) (or (not p6) p29 (not p22) (not p5) (not p11)) (or (not p15) (not p27) (not p27) p8 p10) (or p1 (not p9) p13 (not p12) (not p10)) (or (not p1) (not p7) p6 (not p27) p20) (or p7 p20 p0 p19 (not p27)) (or (not p29) (not p26) (not p13) (not p16) (not p12)) (or (not p0) (not p22) (not p17) p6 p9) (or (not p17) (not p27) (not p8) (not p22) p25) (or (not p14) p4 (not p10) (not p27) (not p5)) (or (not p2) (not p29) p21 p11 (not p20)) (or (not p5) p17 p15 p11 p15) (or p12 (not p2) (not p20) (not p8) p21) (or p4 p27 p22 p28 p1) (or p21 (not p0) (not p28) p11 p20) (or p22 p12 (not p0) (not p15) (not p7)) (or (not p14) p0 (not p11) p26 (not p9)) (or p6 (not p24) (not p12) p26 p17) (or (not p1) p16 (not p3) (not p26) p5) (or p23 (not p27) p16 (not p17) p18) (or p1 (not p17) (not p10) p16 p5) (or p20 (not p29) p29 p2 (not p27)) (or p11 (not p16) (not p28) p2 p29) (or (not p14) p23 (not p7) (not p0) p18) (or p11 (not p6) (not p12) p16 (not p4)) (or (not p24) (not p15) p12 (not p20) p15) (or p28 (not p19) (not p4) (not p21) p1) (or (not p8) p7 (not p19) (not p26) (not p23)) (or p20 (not p7) (not p28) p29 (not p16)) (or p14 (not p11) p6 (not p29) (not p5)) (or (not p9) (not p14) p1 p22 p26) (or p17 p28 (not p2) (not p8) p12) (or (not p4) (not p22) (not p16) p21 (not p0)) (or p14 p21 p11 (not p2) p26) (or p17 p18 (not p4) (not p12) (not p14)) (or p2 p11 (not p15) p29 p2) (or (not p24) (not p17) (not p26) p7 (not p2)) (or (not p2) (not p19) p20 (not p15) (not p23)) (or (not p19) (not p23) (not p8) p21 p10) (or (not p10) p23 (not p17) (not p20) p4) (or p25 p25 (not p9) p24 (not p15)) (or p19 p21 p16 p15 p25) (or p19 (not p11) (not p4) (not p9) p1) (or p3 (not p25) p11 p11 (not p24)) (or (not p28) (not p21) p25 (not p5) p20) (or (not p1) (not p24) p26 (not p3) (not p17)) (or (not p17) p17 (not p17) (not p29) (not p17)) (or (not p13) p10 p8 p24 (not p23)) (or p25 (not p0) (not p20) p9 p20) (or p1 (not p18) p29 p3 (not p18)) (or (not p3) (not p27) (not p4) (not p14) p2) (or (not p23) p22 p10 (not p26) (not p27)) (or p16 p22 (not p20) (not p2) (not p2)) (or p6 (not p9) (not p3) (not p11) p7) (or (not p23) p3 p8 (not p28) p4) (or p16 p16 p3 p20 (not p22)) (or p22 p25 (not p26) (not p25) p21) (or (not p24) (not p13) (not p16) p9 p21) (or p26 p23 p12 p5 (not p17)) (or p4 (not p6) p8 p26 p0) (or p17 p28 (not p1) (not p5) p20) (or (not p22) (not p12) (not p0) (not p22) p7) (or (not p0) p19 (not p0) p14 (not p2)) (or (not p3) (not p9) p6 (not p21) p29) (or (not p10) p25 (not p12) p19 (not p23)) (or (not p7) p0 p13 p10 p8) (or (not p28) (not p10) (not p15) p20 p17) (or (not p0) p22 p4 (not p6) p5) (or p27 (not p13) (not p24) p10 (not p8)) (or (not p17) (not p17) (not p13) (not p4) p15) (or p28 (not p18) (not p26) p9 p13) (or p29 (not p5) p22 p23 p14) (or p0 p10 (not p20) (not p11) (not p16)) (or (not p21) (not p1) (not p26) p4 p14) (or p0 p23 p26 p8 (not p4)) (or (not p8) (not p21) (not p26) p1 p29) (or (not p21) p6 (not p6) (not p10) (not p22)) (or (not p16) (not p2) (not p1) (not p5) (not p2)) (or (not p5) (not p7) p4 (not p16) p23) (or p16 p5 p15 (not p11) p1) (or (not p21) (not p8) (not p26) p23 (not p2)) (or (not p20) (not p9) p27 p27 p19) (or (not p16) (not p5) p12 p27 (not p1)) (or (not p3) (not p10) p16 p11 p26) (or (not p9) p29 p29 (not p0) p13) (or p1 p29 (not p7) (not p29) (not p20)) (or (not p14) p18 p0 p9 (not p22)) (or p21 (not p21) p0 (not p0) p7) (or (not p23) (not p25) p27 (not p2) (not p22)) (or (not p9) (not p5) p16 p3 (not p21)) (or p24 p28 p19 p3 p24) (or (not p20) p12 (not p20) (not p21) p2) (or p17 p2 p28 p11 p11) (or p3 p3 (not p21) (not p10) (not p7)) (or (not p20) p23 p10 p17 (not p14)) (or p22 p3 (not p1) (not p7) p7) (or (not p17) p25 (not p0) (not p19) (not p13)) (or p14 p10 p28 (not p9) (not p1)) (or (not p12) p15 p2 p26 p3) (or p24 (not p0) (not p10) (not p13) (not p26)) (or (not p11) p7 p23 p15 (not p12)) (or (not p25) (not p2) p20 p0 (not p28)) (or p24 (not p27) (not p28) (not p4) (not p29)) (or (not p16) (not p13) p23 p10 (not p22)) (or p17 p6 (not p29) p20 p20) (or (not p23) p6 (not p28) p2 p2) (or p0 p12 (not p5) (not p13) p26) (or (not p15) (not p1) (not p22) (not p17) p28) (or (not p8) (not p8) p6 (not p24) p2) (or (not p18) (not p8) p19 p17 (not p12)) (or (not p13) (not p25) (not p9) p18 p10) (or p11 p2 p4 p2 (not p6)) (or (not p6) (not p2) p12 (not p1) (not p2)) (or p26 (not p29) p13 (not p9) (not p18)) (or p7 (not p6) (not p25) (not p19) (not p2)) (or (not p4) p11 p8 (not p5) (not p18)) (or p2 (not p27) (not p19) p5 (not p1)) (or (not p23) (not p29) p8 (not p4) p5) (or (not p27) p0 p27 p0 p20) (or (not p28) p23 p25 (not p7) p7) (or (not p7) p1 (not p3) (not p18) p15) (or (not p20) p13 (not p4) p1 p12) (or (not p10) (not p14) (not p13) (not p3) p24) (or (not p7) p17 p19 (not p6) p12) (or (not p12) p25 p3 p4 p26) (or p27 (not p19) (not p13) (not p16) (not p5)) (or (not p23) (not p20) p10 (not p3) p23) (or p10 (not p23) (not p2) p9 p25) (or (not p6) p9 (not p24) p23 p18) (or (not p21) p2 p28 p16 (not p6)) (or p6 p11 p19 p8 p8) (or p11 (not p25) p17 p8 (not p25)) (or p2 p8 p14 p16 (not p23)) (or p8 p1 (not p15) p1 (not p29)) (or (not p27) (not p0) (not p21) p14 (not p3)) (or (not p3) (not p5) (not p19) p8 p24) (or p24 (not p23) p14 p3 (not p22)) (or (not p17) (not p15) p28 (not p5) (not p20)) (or (not p2) p17 (not p15) (not p21) p26) (or (not p0) (not p27) p1 p22 (not p18)) (or (not p11) p2 (not p20) (not p3) p10) (or (not p6) p9 p0 p15 p22) (or p7 (not p24) p17 p22 p12) (or (not p4) (not p23) p4 p27 (not p23)) (or (not p3) (not p29) p19 p17 p19) (or (not p28) (not p17) p15 p4 p29) (or (not p29) (not p26) p15 p0 (not p14)) (or (not p12) (not p24) p28 p21 (not p24)) (or p27 (not p8) p19 p2 p16) (or p4 (not p22) p22 p22 (not p27)) (or (not p18) (not p10) p5 (not p2) p20) (or (not p7) (not p23) (not p6) p23 (not p7)) (or p1 p9 p1 p22 p1) (or (not p24) (not p10) p25 (not p27) (not p25)) (or (not p19) (not p26) p8 p17 (not p20)) (or p20 (not p25) (not p19) (not p23) (not p6)) (or (not p29) p24 (not p1) (not p12) (not p0)) (or p14 (not p8) p2 p13 p1) (or (not p2) (not p1) p29 p9 (not p15)) (or (not p23) p6 p24 (not p0) (not p17)) (or p29 (not p1) (not p6) (not p14) (not p3)) (or (not p10) (not p2) (not p25) (not p19) (not p8)) (or (not p16) (not p8) p20 (not p29) p4) (or (not p28) p28 (not p20) (not p19) p7) (or p0 p17 p2 p17 p3) (or p25 p26 p28 (not p18) (not p8)) (or p7 p9 (not p22) p22 (not p14)) (or (not p20) (not p19) p15 p9 (not p25)) (or p8 p27 (not p26) (not p27) p14) (or p29 (not p2) p22 (not p5) (not p12)) (or (not p7) (not p25) p24 (not p14) (not p5)) (or p9 p24 p9 (not p27) (not p13)) (or p6 (not p11) (not p14) (not p10) p4) (or p2 p12 p24 p1 (not p9)) (or p11 p26 (not p2) (not p7) p17) (or p5 (not p24) (not p9) (not p7) p4) (or (not p13) p16 (not p28) p11 (not p29)) (or p11 (not p15) (not p10) p7 (not p13)) (or (not p3) (not p19) p28 (not p5) (not p18)) (or p17 (not p6) (not p6) (not p11) p14) (or (not p20) (not p16) (not p6) (not p18) (not p14)) (or (not p11) p24 p19 (not p6) p25) (or p8 (not p3) p13 p6 (not p10)) (or p16 (not p13) p4 (not p16) p9) (or (not p24) (not p28) p23 p1 p8) (or p25 (not p26) p22 (not p14) (not p7)) (or p8 (not p1) (not p6) p18 p27) (or p25 p14 (not p22) (not p22) (not p7)) (or (not p1) p22 (not p19) (not p5) (not p8)) (or p8 p18 p27 (not p15) (not p2)) (or p6 (not p24) p12 (not p24) (not p11)) (or (not p17) (not p16) (not p20) p11 (not p28)) (or p15 (not p28) p2 (not p3) p13) (or (not p16) p11 (not p18) (not p25) p11) (or (not p18) p18 (not p19) p22 (not p0)) (or p25 p20 (not p24) p0 p14) (or p26 (not p16) p9 p15 (not p24)) (or p14 (not p23) (not p12) p29 p25) (or p19 (not p22) (not p6) p9 p15) (or p21 p24 p4 (not p1) (not p23)) (or (not p28) p25 p7 (not p4) p25) (or (not p1) p3 (not p28) (not p18) p29) (or (not p25) p2 (not p24) (not p10) (not p15)) (or p3 (not p19) (not p26) (not p10) p17) (or (not p0) (not p16) (not p9) (not p6) p12) (or (not p4) (not p13) (not p22) (not p15) (not p18)) (or (not p15) (not p1) (not p10) p21 (not p27)) (or p14 p25 (not p10) p23 (not p15)) (or p4 p5 (not p3) (not p29) p13) (or (not p2) p16 p20 p27 p8) (or p8 p8 (not p20) (not p17) (not p22)) (or (not p0) p19 (not p24) p11 p22) (or (not p17) (not p14) p6 p1 p23) (or (not p15) (not p24) p24 p24 (not p17)) (or p22 p5 p22 (not p18) p2) (or (not p15) (not p23) p5 p4 (not p28)) (or p18 p10 p29 (not p6) p0) (or p27 (not p16) (not p23) (not p4) (not p15)) (or p12 p13 p24 p10 p28) (or p2 p8 p8 p2 (not p25)) (or p6 (not p4) (not p21) p28 (not p1)) (or (not p22) p22 (not p23) (not p26) (not p25)) (or (not p9) p9 p18 p9 p11) (or p18 p3 (not p1) p3 (not p5)) (or p21 (not p18) (not p5) (not p26) p0) (or p7 (not p17) p18 (not p6) (not p27)) (or (not p4) p7 p2 p14 (not p8)) (or (not p29) (not p21) (not p5) (not p0) p13) (or (not p16) (not p0) p24 (not p18) p26) (or (not p18) (not p3) p3 (not p23) p7) (or (not p3) (not p24) (not p3) (not p18) p29) (or (not p21) p1 p9 p7 (not p17)) (or (not p3) (not p24) (not p9) (not p22) p12) (or p15 p17 p18 p3 (not p5)) (or p3 p27 p28 p23 p7) (or (not p14) (not p12) p12 (not p21) p7) (or (not p21) (not p17) (not p12) (not p15) (not p5)) (or p15 (not p29) (not p23) (not p13) (not p9)) (or (not p28) p23 (not p21) (not p9) (not p19)) (or p13 (not p22) p29 (not p3) p24) (or p27 (not p7) (not p6) (not p6) p8) (or (not p20) p22 (not p8) (not p5) (not p0)) (or (not p8) p1 p6 p18 (not p3)) (or p7 (not p19) (not p26) (not p7) (not p5)) (or p9 p19 (not p0) (not p1) p29) (or (not p28) (not p13) p16 p11 (not p27)) (or p4 (not p28) (not p19) p21 p16) (or (not p11) p2 (not p14) p26 (not p2)) (or p0 p14 (not p5) p17 p12) (or (not p1) p5 (not p4) (not p26) (not p4)) (or (not p12) p27 p22 (not p18) (not p22)) (or p18 p11 (not p23) (not p10) (not p3)) (or p20 (not p3) p18 p0 (not p9)) (or p15 (not p25) p12 (not p12) (not p1)) (or (not p26) p10 p29 (not p26) p10) (or (not p22) p2 (not p0) p14 p10) (or p23 p19 (not p8) p21 p27) (or p25 p18 (not p25) (not p4) (not p12)) (or (not p22) p28 (not p8) p9 (not p15)) (or (not p16) p25 (not p12) p10 p3) (or p0 p24 (not p3) (not p20) p22) (or p12 p6 (not p27) p12 p23) (or p21 p5 (not p0) p11 p28) (or (not p5) (not p9) p5 (not p6) p9) (or (not p20) (not p16) p27 (not p25) p9) (or p17 (not p2) (not p15) (not p22) (not p8)) (or (not p10) (not p19) (not p6) (not p23) (not p26)) (or p22 (not p19) p5 p1 (not p9)) (or p3 p25 (not p21) (not p4) (not p29)) (or (not p0) p22 p1 p9 (not p2)) (or (not p0) (not p26) (not p7) p12 (not p29)) (or (not p10) p29 p13 p23 p12) (or (not p3) (not p0) (not p25) p21 p1) (or p10 (not p26) (not p5) (not p3) p26) (or (not p14) (not p0) (not p16) (not p10) (not p21)) (or (not p18) (not p12) p23 p23 (not p25)) (or p29 (not p13) p1 p0 p21) (or (not p21) p16 p19 p27 (not p20)) (or p20 (not p26) p1 (not p18) (not p9)) (or p9 (not p17) (not p21) p21 p29) (or p1 p11 p14 p5 (not p27)) (or p3 p17 (not p11) p1 p23) (or (not p10) p6 (not p26) p28 p21) (or p22 p29 (not p19) p14 (not p26)) (or p27 p4 p21 p15 (not p2)) (or (not p3) p6 p24 p13 (not p18)) (or p7 (not p21) p12 p18 p19) (or p27 (not p24) p4 (not p29) p0) (or p24 (not p11) (not p17) p28 p19) (or p28 (not p7) p27 p14 p27) (or p19 p13 p7 (not p21) (not p26)) (or p7 (not p21) (not p19) (not p9) (not p13)) (or (not p29) p11 (not p5) (not p1) p24) (or p26 (not p13) p14 (not p6) p17) (or p28 (not p26) (not p3) (not p11) p23) (or p17 p6 (not p19) p14 p11) (or p13 p10 p29 (not p21) p5) (or (not p25) p15 (not p2) (not p7) p11) (or p11 p10 p6 p19 p12) (or p0 p10 (not p3) p25 (not p5)) (or p22 p9 p29 p0 p24) (or p4 (not p3) (not p0) p13 p28) (or p23 p21 (not p17) (not p26) (not p11)) (or (not p11) p11 (not p22) p27 (not p27)) (or (not p8) p5 (not p5) (not p2) (not p18)) (or (not p29) (not p20) p18 p14 (not p21)) (or (not p27) p22 (not p18) p3 p13) (or p0 (not p7) (not p19) (not p23) p19) (or p3 (not p14) (not p21) (not p28) (not p9)) (or (not p28) p28 (not p1) (not p16) (not p12)) (or (not p25) (not p0) (not p8) (not p3) (not p15)) (or p21 p4 (not p29) (not p19) (not p25)) (or (not p3) (not p5) (not p26) p19 p29) (or p7 p8 p4 (not p20) p17) (or p17 (not p7) (not p10) (not p4) (not p14)) (or p9 p10 p19 (not p23) (not p17)) (or (not p5) p23 p14 (not p22) (not p24)) (or p8 p0 (not p7) p4 (not p24)) (or p10 (not p7) (not p4) (not p16) p12) (or p24 p13 p15 p8 p15) (or (not p3) (not p0) (not p4) (not p8) p5) (or p12 (not p0) p26 (not p0) p29) (or (not p21) p24 (not p17) (not p28) (not p3)) (or p15 p3 (not p25) (not p11) p6) (or p19 p4 p25 p25 (not p20)) (or p12 (not p4) p14 (not p25) p19) (or p9 p1 (not p0) (not p11) (not p24)) (or (not p11) (not p28) (not p12) p17 (not p7)) (or (not p24) (not p22) p7 (not p7) p27) (or p25 p24 (not p29) (not p11) (not p7)) (or (not p27) p19 (not p23) p2 (not p22)) (or p19 (not p16) p3 p5 (not p24)) (or (not p8) p25 p1 p7 p25) (or p13 p26 (not p11) (not p27) p4) (or (not p12) (not p16) p21 (not p8) p21) (or (not p0) p0 (not p21) (not p24) p15) (or (not p11) p12 (not p1) p5 p16) (or p20 p25 p24 p28 (not p9)) (or p21 (not p24) (not p8) (not p3) p5) (or p24 (not p11) p21 (not p6) (not p29)) (or p25 p26 p19 p1 (not p13)) (or p3 (not p4) p5 (not p2) (not p2)) (or (not p10) (not p12) p23 p29 (not p0)) (or p3 (not p16) (not p11) p14 (not p3)) (or p13 p18 p9 p26 (not p9)) (or (not p24) (not p0) p25 (not p12) p13) (or (not p4) p17 (not p10) p28 (not p18)) (or p7 p12 (not p11) (not p0) (not p28)) (or (not p21) p29 (not p24) p1 (not p29)) (or (not p2) (not p5) (not p6) (not p6) (not p12)) (or p16 (not p17) (not p11) (not p22) (not p13)) (or (not p10) (not p24) p19 (not p1) p4) (or (not p4) (not p12) p13 (not p14) (not p27)) (or p21 p25 p26 p0 p18) (or (not p15) (not p14) p6 (not p21) p1) (or (not p28) (not p25) (not p16) p12 (not p17)) (or p12 (not p6) p11 p6 (not p19)) (or p19 (not p2) p14 (not p21) p12) (or (not p10) p20 (not p13) (not p15) p25) (or p9 (not p25) (not p17) (not p18) (not p1)) (or p10 p15 (not p6) p17 (not p8)) (or (not p29) (not p11) p16 (not p12) (not p6)) (or (not p29) (not p1) p27 p14 p2) (or (not p10) p28 (not p15) (not p3) (not p7)) (or p8 p19 (not p10) p19 (not p6)) (or (not p3) (not p28) (not p3) p16 (not p7)) (or (not p0) p18 p4 p23 (not p23)) (or p3 (not p5) p5 (not p11) (not p19)) (or p11 (not p18) (not p0) p26 p25) (or (not p11) p12 (not p5) p10 (not p14)) (or (not p13) (not p12) (not p12) p23 p25) (or p29 (not p6) p6 p27 (not p0)) (or (not p3) (not p16) p18 p27 (not p0)) (or p20 p19 p25 (not p11) p5) (or p5 (not p2) p8 (not p5) p6) (or p20 (not p18) p20 (not p19) (not p20)) (or p24 p21 p26 p21 (not p26)) (or (not p13) p25 (not p7) p8 (not p3)) (or p10 p28 p25 p10 (not p3)) (or (not p25) p19 (not p16) p9 (not p10)) (or (not p5) p19 (not p10) p25 (not p17)) (or (not p15) p7 p28 p23 (not p16)) (or (not p25) (not p17) (not p21) (not p1) (not p7)) (or p1 (not p24) (not p15) p12 (not p7)) (or p12 (not p8) p22 (not p0) (not p12)) (or (not p23) p12 p21 p13 (not p15)) (or p20 p24 (not p22) p23 p25) (or p11 p23 (not p3) p8 (not p19)) (or p25 p0 (not p8) p2 (not p13)) (or (not p14) p11 (not p21) (not p26) (not p19)) (or p26 p28 (not p18) p24 p24) (or (not p17) p15 p26 (not p15) (not p19)) (or p14 (not p23) p18 (not p16) p18) (or (not p23) (not p16) (not p23) p5 (not p8)) (or p5 p20 (not p19) (not p27) (not p19)) (or (not p20) (not p20) p12 (not p12) p18) (or p1 (not p26) (not p12) (not p17) (not p5)) (or p5 p21 (not p28) p20 (not p21)) (or p25 (not p27) p17 p5 p28) (or (not p1) p13 (not p29) p10 p17) (or (not p12) (not p8) (not p6) p14 p22) (or p25 p15 (not p29) p6 p26) (or (not p6) p25 p10 (not p23) p22) (or p28 (not p18) (not p18) (not p26) p22) (or (not p24) p9 (not p29) (not p3) p24) (or (not p25) (not p5) (not p0) (not p5) p3) (or p29 p1 p1 p1 (not p7)) (or p19 (not p24) p15 (not p11) p24) (or (not p2) (not p28) p21 p28 p9) (or (not p20) p9 p5 (not p15) (not p28)) (or (not p4) (not p4) (not p3) p25 p18) (or (not p3) p13 p2 (not p4) (not p4)) (or (not p9) (not p20) (not p12) p2 p2) (or p29 (not p13) p17 (not p0) p23) (or p24 p1 p11 p10 (not p14)) (or p14 (not p23) (not p15) (not p18) p27) (or (not p20) p6 p6 p10 p19) (or p10 (not p22) (not p10) (not p10) (not p28)) (or p10 (not p24) p2 (not p25) p14) (or (not p28) (not p15) (not p18) p2 (not p17)) (or (not p10) (not p28) p15 (not p6) p0) (or p13 (not p16) p14 (not p28) (not p21)) (or p27 (not p1) (not p24) p15 p23) (or p8 p12 (not p2) p14 p15) (or p3 p19 (not p3) p23 p14) (or p15 p13 p12 p2 (not p10)) (or p6 (not p29) (not p19) p7 (not p9)) (or (not p22) (not p22) (not p2) p21 (not p20)) (or p7 p26 (not p27) p24 (not p29)) (or p22 p27 (not p26) p6 (not p22)) (or p26 (not p21) p23 (not p21) p12) (or (not p10) (not p8) (not p8) p17 (not p16)) (or (not p27) (not p12) (not p13) p26 p28) (or (not p14) (not p3) p4 p21 (not p4)) (or (not p9) (not p24) p21 (not p12) (not p28)) (or p11 (not p0) p0 p9 (not p18)) (or p6 (not p5) p6 (not p19) p0) (or (not p0) (not p25) p18 (not p16) (not p9)) (or (not p9) p15 (not p10) (not p28) (not p22)) (or p6 (not p20) p23 p8 p19) (or p18 (not p25) p3 p10 (not p19)) (or p19 (not p20) (not p9) p24 p2) (or (not p24) p2 p28 p4 (not p25)) (or p27 p21 (not p0) p26 (not p13)) (or p6 (not p21) p23 (not p9) (not p9)) (or (not p7) (not p4) (not p23) p28 (not p10)) (or (not p2) p21 (not p1) p4 (not p0)) (or p15 (not p19) p17 (not p4) p22) (or (not p12) p6 (not p19) p7 (not p26)) (or (not p26) (not p0) p11 (not p3) p19) (or (not p4) p21 p0 (not p27) (not p27)) (or (not p3) (not p9) (not p17) p13 p18) (or p27 (not p17) p9 (not p26) p29) (or p11 (not p26) (not p18) (not p9) p24) (or (not p12) p29 p21 p14 p19) (or p29 p19 (not p21) (not p8) (not p19)) (or (not p8) p8 p8 p3 p15) (or (not p28) (not p14) p27 (not p8) p4) (or (not p21) (not p7) p21 (not p14) p20) (or (not p11) (not p9) p0 p2 (not p27)) (or p18 (not p26) (not p29) p6 (not p12)) (or p9 p23 (not p1) p12 (not p12)) (or (not p9) p28 p17 p24 (not p25)) (or (not p5) (not p19) (not p1) p7 (not p20)) (or p27 (not p12) (not p13) (not p28) p3) (or (not p4) p21 (not p29) p11 p29) (or p29 (not p4) (not p3) (not p26) p2) (or p14 p6 (not p5) p26 p13) (or (not p5) (not p10) (not p23) p17 (not p6)) (or (not p9) p15 p9 p4 p17) (or (not p21) (not p4) (not p29) (not p1) (not p25)) (or p18 p17 p7 p18 p11) (or (not p19) p22 (not p26) (not p22) p8) (or p29 p23 (not p21) (not p10) p5) (or p9 p29 (not p14) (not p9) (not p23)) (or p14 (not p13) p22 p10 (not p1)) (or (not p6) p4 (not p22) (not p7) p16) (or (not p24) p29 p17 p17 p15))
)
(check-sat)
(get-model)
